sat
(:added-eqs                       5167
 :arith-eq-adapter                541
 :arith-bound-propagations-lp     80
 :arith-conflicts                 503
 :arith-diseq                     457
 :arith-fixed-eqs                 359
 :arith-gcd-calls                 38
 :arith-grobner-calls             125
 :arith-grobner-conflicts         34
 :arith-horner-calls              30
 :arith-horner-cross-nested-forms 4685
 :arith-lower                     783
 :arith-make-feasible             698
 :arith-max-columns               1482
 :arith-max-rows                  668
 :arith-nla-add-bounds            58
 :arith-nla-lemmas                363
 :arith-nla-propagate-bounds      102
 :arith-nla-propagate-eq          3861
 :arith-nra-calls                 8
 :arith-offset-eqs                1548
 :arith-patches                   38
 :arith-patches-success           38
 :arith-upper                     1051
 :binary-propagations             2103
 :card2bv-rewrites                1
 :conflicts                       64
 :decisions                       3704
 :del-clause                      772
 :elim-unconstrained              41
 :final-checks                    231
 :max-memory                      31.40
 :memory                          19.74
 :minimized-lits                  55
 :mk-bool-var                     3438
 :mk-clause                       1282
 :mk-clause-binary                18586
 :num-allocs                      225140768
 :num-checks                      1
 :propagations                    2968
 :rlimit-count                    786539
 :time                            0.49
 :total-time                      0.51)
